NAME : local_12
TYPE : ATSP
DIMENSION : 6
EDGE_WEIGHT_TYPE : EXPLICIT
EDGE_WEIGHT_FORMAT : FULL_MATRIX
EDGE_WEIGHT_SECTION
0 513 10000000 1073 583 337 
0 0 10000000 10000000 153 352 
0 10000000 0 373 10000000 10000000 
0 10000000 373 0 10000000 10000000 
0 153 10000000 10000000 0 340 
0 10000000 10000000 10000000 10000000 0 
EOF